p cnf 4 16
1000001 1010101 0
-1000100 -1000101 0
-1000000 -1010100 0
1010002 0
-1000101 -1010001 0
-1010100 -1010101 0
-1000100 -1010000 0
1000001 0
1010001 1000101 0
-1000001 -1010101 0
1000000 1010100 0
-1000000 -1000001 0
1010102 0
1000100 1010000 0
-1010001 -1010000 0
1000101 0
